NAME : single
TYPE : ATSP
DIMENSION : 5
EDGE_WEIGHT_TYPE : EXPLICIT
EDGE_WEIGHT_FORMAT : FULL_MATRIX
EDGE_WEIGHT_SECTION
0 7905 7767 8407 7452 
198418 0 691 3063 2079 
198446 691 0 2623 1630 
198318 3063 2623 0 1281 
198509 2079 1630 1281 0 
EOF